
maximize cost: 77 xfa9 + 4 xfb1 + 33 xfb2 + 8 xfbb
 + 5 xfb6 + 34 xfb7 + 8 xfbd + 115 xfcb + 8 xfd4
 + 8 xfd5 + 16 xfd8 + 16 xfd9 + 10 xfdc + 10 xfdd
 + 10 xfe0 + 10 xfe1 + 42 xfee + 30 xfef + 40 xff0
 + 32 xff1 + 10 xff8 + 10 xff9 + 10 xffa + 10 xffb
 + 18 xffe + 18 xfff + 10 x1002 + 10 x1003 + 10 x1006
 + 10 x1007 + 4 x1014 + 32 x1015 + 4 x1016 + 32 x1017
 + 36 x1032 + 36 x1034 + 10 x101e + 10 x101f + 10 x1020
 + 10 x1021 + 18 x1024 + 18 x1025 + 4 x102a + 32 x102b
 + 18 x1048 + 56 x104d + 71 x104e + 8 x1055 + 8 x1056
 + 8 x1059 + 8 x105a + 11 x105d + 11 x105e + 10 x1061
 + 10 x1062 + 33 x106f + 23 x1070 + 32 x1071 + 24 x1072
 + 11 x1079 + 11 x107a + 10 x107b + 10 x107c + 10 x107f
 + 10 x1080 + 10 x1083 + 10 x1084 + 10 x1087 + 10 x1088
 + 4 x1095 + 24 x1096 + 4 x1097 + 24 x1098 + 28 x10b3
 + 28 x10b5 + 10 x109f + 10 x10a0 + 10 x10a1 + 10 x10a2
 + 10 x10a5 + 10 x10a6 + 4 x10ab + 24 x10ac + 10 x10c9
 + 31 x10ce + 71 x10cf + 25 x1171 + 25 x1172 + 25 x1173
 + 8 x10d6 + 8 x10d7 + 8 x10da + 8 x10db + 11 x10de
 + 11 x10df + 10 x10e2 + 10 x10e3 + 33 x10f0 + 23 x10f1
 + 32 x10f2 + 24 x10f3 + 11 x10fa + 11 x10fb + 10 x10fc
 + 10 x10fd + 10 x1100 + 10 x1101 + 10 x1104 + 10 x1105
 + 10 x1108 + 10 x1109 + 4 x1116 + 24 x1117 + 4 x1118
 + 24 x1119 + 28 x1134 + 28 x1136 + 10 x1120 + 10 x1121
 + 10 x1122 + 10 x1123 + 10 x1126 + 10 x1127 + 4 x112c
 + 24 x112d + 10 x114a + 31 x114f + 71 x1150 + 8 x1158
 + 8 x1159 + 8 x115c + 8 x115d + 43 x1162 + 23 x1163
 + 8 x1176 + 8 x1178 + 8 x117a + 31 x1183 + 71 x1184
 + 25 x13b0 + 25 x13b1 + 25 x13b2 + 8 x118b + 8 x118c
 + 8 x118f + 8 x1190 + 11 x1193 + 11 x1194 + 10 x1197
 + 10 x1198 + 33 x11a5 + 23 x11a6 + 32 x11a7 + 24 x11a8
 + 11 x11af + 11 x11b0 + 10 x11b1 + 10 x11b2 + 10 x11b5
 + 10 x11b6 + 10 x11b9 + 10 x11ba + 10 x11bd + 10 x11be
 + 4 x11cb + 24 x11cc + 4 x11cd + 24 x11ce + 28 x11e9
 + 28 x11eb + 10 x11d5 + 10 x11d6 + 10 x11d7 + 10 x11d8
 + 10 x11db + 10 x11dc + 4 x11e1 + 24 x11e2 + 10 x11ff
 + 31 x1204 + 71 x1205 + 25 x1284 + 25 x1285 + 25 x1286
 + 8 x120c + 8 x120d + 8 x1210 + 8 x1211 + 11 x1214
 + 11 x1215 + 10 x1218 + 10 x1219 + 33 x1226 + 23 x1227
 + 32 x1228 + 24 x1229 + 11 x1230 + 11 x1231 + 10 x1232
 + 10 x1233 + 10 x1236 + 10 x1237 + 10 x123a + 10 x123b
 + 10 x123e + 10 x123f + 4 x124c + 24 x124d + 4 x124e
 + 24 x124f + 28 x126a + 28 x126c + 10 x1256 + 10 x1257
 + 10 x1258 + 10 x1259 + 10 x125c + 10 x125d + 4 x1262
 + 24 x1263 + 10 x1280 + 8 x1289 + 8 x128b + 8 x128d
 + 31 x1296 + 71 x1297 + 25 x133e + 25 x133f + 25 x1340
 + 8 x129e + 8 x129f + 8 x12a2 + 8 x12a3 + 11 x12a6
 + 11 x12a7 + 10 x12aa + 10 x12ab + 33 x12b8 + 23 x12b9
 + 32 x12ba + 24 x12bb + 11 x12c2 + 11 x12c3 + 10 x12c4
 + 10 x12c5 + 10 x12c8 + 10 x12c9 + 10 x12cc + 10 x12cd
 + 10 x12d0 + 10 x12d1 + 4 x12de + 24 x12df + 4 x12e0
 + 24 x12e1 + 28 x12fc + 28 x12fe + 10 x12e8 + 10 x12e9
 + 10 x12ea + 10 x12eb + 10 x12ee + 10 x12ef + 4 x12f4
 + 24 x12f5 + 10 x1312 + 31 x131c + 71 x131d + 8 x1325
 + 8 x1326 + 8 x1329 + 8 x132a + 43 x132f + 23 x1330
 + 24 x1343 + 41 x1505 + 24 x1352 + 24 x1353 + 24 x1354
 + 31 x1359 + 71 x135a + 25 x137a + 25 x137b + 25 x137c
 + 8 x1361 + 8 x1362 + 8 x1365 + 8 x1366 + 43 x136b
 + 23 x136c + 31 x1386 + 71 x1387 + 25 x13a6 + 25 x13a7
 + 25 x13a8 + 8 x138e + 8 x138f + 8 x1392 + 8 x1393
 + 43 x1398 + 23 x1399 + 24 x13b3 + 24 x13b4 + 24 x13b5
 + 24 x13b8 + 24 x13c2 + 24 x13c3 + 24 x13c4 + 31 x13c9
 + 71 x13ca + 25 x141a + 25 x141b + 25 x141c + 8 x13d1
 + 8 x13d2 + 8 x13d5 + 8 x13d6 + 43 x13db + 23 x13dc
 + 31 x13f0 + 71 x13f1 + 25 x1411 + 25 x1412 + 25 x1413
 + 8 x13f8 + 8 x13f9 + 8 x13fc + 8 x13fd + 43 x1402
 + 23 x1403 + 24 x141d + 24 x141e + 24 x141f + 31 x1429
 + 71 x142a + 25 x144a + 25 x144b + 25 x144c + 8 x1431
 + 8 x1432 + 8 x1435 + 8 x1436 + 43 x143b + 23 x143c
 + 8 x1455 + 56 x145a + 71 x145b + 8 x1462 + 8 x1463
 + 8 x1466 + 8 x1467 + 11 x146a + 11 x146b + 10 x146e
 + 10 x146f + 33 x147c + 23 x147d + 32 x147e + 24 x147f
 + 11 x1486 + 11 x1487 + 10 x1488 + 10 x1489 + 10 x148c
 + 10 x148d + 10 x1490 + 10 x1491 + 10 x1494 + 10 x1495
 + 4 x14a2 + 24 x14a3 + 4 x14a4 + 24 x14a5 + 28 x14c0
 + 28 x14c2 + 10 x14ac + 10 x14ad + 10 x14ae + 10 x14af
 + 10 x14b2 + 10 x14b3 + 4 x14b8 + 24 x14b9 + 10 x14d6
 + 31 x14de + 71 x14df + 25 x14fe + 25 x14ff + 25 x1500
 + 8 x14e6 + 8 x14e7 + 8 x14ea + 8 x14eb + 43 x14f0
 + 23 x14f1

subject to

z = 0


o = 1


+1 xfa9 = +1



+1 x1505 = +1



+1 xfa9 -1 xfb1 -1 xfb2 = +0

+1 xfb1 -1 xfbb +0 xfbc = +0

+1 xfb2 -1 xfb5 +1 xfb7 = +0

+1 xfb5 -1 xfb6 -1 xfb7 = +0

+1 xfb6 -1 xfbd +0 xfbe = +0

+1 xfbb +1 xfbd -1 xfcb = +0

+1 xfcb -1 xfd4 -1 xfd5 = +0

+1 xfd5 -1 xfd8 -1 xfd9 = +0

+1 xfd8 -1 xfdc -1 xfdd = +0

+1 xfdd +1 xfe1 -1 xfe5 +0 xfe6 = +0

+1 xfdc -1 xfdf +1 xfe0 = +0

+1 xfdf -1 xfe0 -1 xfe1 = +0

+1 xfd9 -1 xfee -1 xfef = +0

+1 xfe5 -1 xff0 -1 xff1 = +0

+1 xfef +1 xff1 -1 xff5 = +0

+1 xfd4 -1 xff8 -1 xff9 = +0

+1 xff5 -1 xffa -1 xffb = +0

-1 x101a +1 xff8 +1 xffa = +0

+1 xff9 +1 xffb -1 xffc = +0

+1 xffc -1 xffe -1 xfff = +0

-1 x1001 +1 x1024 +1 xffe = +0

+1 x1001 -1 x1002 -1 x1003 = +0

+1 x1003 +1 x1007 -1 x100b +0 x100c = +0

+1 x1002 -1 x1005 +1 x1006 = +0

+1 x1005 -1 x1006 -1 x1007 = +0

-1 x1014 -1 x1015 +1 xfff = +0

+1 x100b -1 x1016 -1 x1017 = +0

+1 x1016 -1 x1032 +0 x1033 = +0

+1 x1014 +1 x102a -1 x1034 +0 x1035 = +0

+1 x1015 +1 x1017 -1 x101b = +0

+1 x101a -1 x101c +1 x102e = +0

+1 x101b -1 x101d +1 x102b = +0

+1 x101c -1 x101e -1 x101f = +0

+1 x101d -1 x1020 -1 x1021 = +0

+1 x101e +1 x1020 -1 x102e = +0

+1 x101f +1 x1021 -1 x1022 = +0

+1 x1022 -1 x1024 -1 x1025 = +0

+1 x1025 -1 x102a -1 x102b = +0

+1 x1032 +1 x1034 -1 x1048 +1 xfee +1 xff0 = +0

+1 x1048 -1 x104d -1 x104e = +0

+1 x104e -1 x1055 -1 x1056 = +0

+1 x1056 -1 x1059 -1 x105a = +0

+1 x1059 -1 x105d -1 x105e = +0

+1 x105e +1 x1062 -1 x1066 +0 x1067 = +0

+1 x105d -1 x1060 +1 x1061 = +0

+1 x1060 -1 x1061 -1 x1062 = +0

+1 x105a -1 x106f -1 x1070 = +0

+1 x1066 -1 x1071 -1 x1072 = +0

+1 x1070 +1 x1072 -1 x1076 = +0

+1 x1055 -1 x1079 -1 x107a = +0

+1 x1076 -1 x107b -1 x107c = +0

+1 x1079 +1 x107b -1 x109b = +0

+1 x107a +1 x107c -1 x107d = +0

+1 x107d -1 x107f -1 x1080 = +0

+1 x107f -1 x1082 +1 x10a5 = +0

+1 x1082 -1 x1083 -1 x1084 = +0

+1 x1084 +1 x1088 -1 x108c +0 x108d = +0

+1 x1083 -1 x1086 +1 x1087 = +0

+1 x1086 -1 x1087 -1 x1088 = +0

+1 x1080 -1 x1095 -1 x1096 = +0

+1 x108c -1 x1097 -1 x1098 = +0

+1 x1097 -1 x10b3 +0 x10b4 = +0

+1 x1095 +1 x10ab -1 x10b5 +0 x10b6 = +0

+1 x1096 +1 x1098 -1 x109c = +0

+1 x109b -1 x109d +1 x10af = +0

+1 x109c -1 x109e +1 x10ac = +0

+1 x109d -1 x109f -1 x10a0 = +0

+1 x109e -1 x10a1 -1 x10a2 = +0

+1 x109f +1 x10a1 -1 x10af = +0

+1 x10a0 +1 x10a2 -1 x10a3 = +0

+1 x10a3 -1 x10a5 -1 x10a6 = +0

+1 x10a6 -1 x10ab -1 x10ac = +0

+1 x106f +1 x1071 +1 x10b3 +1 x10b5 -1 x10c9 = +0

+1 x10c9 -1 x10ce -1 x10cf = +0

+1 x10ce +1 x114f -1 x1171 -1 x1172 -1 x1173 = +0

+1 x10cf -1 x10d6 -1 x10d7 = +0

+1 x10d7 -1 x10da -1 x10db = +0

+1 x10da -1 x10dd +1 x115c +1 x13d5 = +0

+1 x10dd -1 x10de -1 x10df = +0

+1 x10df +1 x10e3 -1 x10e7 +0 x10e8 = +0

+1 x10de -1 x10e1 +1 x10e2 = +0

+1 x10e1 -1 x10e2 -1 x10e3 = +0

+1 x10db -1 x10f0 -1 x10f1 = +0

+1 x10e7 -1 x10f2 -1 x10f3 = +0

+1 x10f1 +1 x10f3 -1 x10f7 = +0

+1 x10d6 -1 x10f8 +1 x1158 +1 x13d1 = +0

+1 x10f7 -1 x10f9 +1 x1163 +1 x13dc = +0

+1 x10f8 -1 x10fa -1 x10fb = +0

+1 x10f9 -1 x10fc -1 x10fd = +0

+1 x10fa +1 x10fc -1 x111c = +0

+1 x10fb +1 x10fd -1 x10fe = +0

+1 x10fe -1 x1100 -1 x1101 = +0

+1 x1100 -1 x1103 +1 x1126 = +0

+1 x1103 -1 x1104 -1 x1105 = +0

+1 x1105 +1 x1109 -1 x110d +0 x110e = +0

+1 x1104 -1 x1107 +1 x1108 = +0

+1 x1107 -1 x1108 -1 x1109 = +0

+1 x1101 -1 x1116 -1 x1117 = +0

+1 x110d -1 x1118 -1 x1119 = +0

+1 x1118 -1 x1134 +0 x1135 = +0

+1 x1116 +1 x112c -1 x1136 +0 x1137 = +0

+1 x1117 +1 x1119 -1 x111d = +0

+1 x111c -1 x111e +1 x1130 = +0

+1 x111d -1 x111f +1 x112d = +0

+1 x111e -1 x1120 -1 x1121 = +0

+1 x111f -1 x1122 -1 x1123 = +0

+1 x1120 +1 x1122 -1 x1130 = +0

+1 x1121 +1 x1123 -1 x1124 = +0

+1 x1124 -1 x1126 -1 x1127 = +0

+1 x1127 -1 x112c -1 x112d = +0

+1 x10f0 +1 x10f2 +1 x1134 +1 x1136 -1 x114a = +0

+1 x114a -1 x114e +1 x1162 +1 x13db = +0

+1 x114e -1 x114f -1 x1150 = +0

+1 x1150 -1 x1158 -1 x1159 = +0

+1 x1159 -1 x115c -1 x115d = +0

+1 x115d -1 x1162 -1 x1163 = +0

+1 x1171 -1 x1176 +1 x1420 = +0

+1 x1172 -1 x1178 +1 x1421 = +0

+1 x1173 -1 x117a +1 x1422 = +0

+1 x1176 -1 x1183 -1 x1184 = +0

+1 x1183 -1 x13b0 -1 x13b1 -1 x13b2 = +0

+1 x1184 -1 x118b -1 x118c = +0

+1 x118c -1 x118f -1 x1190 = +0

+1 x118f -1 x1192 +1 x13fc +1 x1435 = +0

+1 x1192 -1 x1193 -1 x1194 = +0

+1 x1194 +1 x1198 -1 x119c +0 x119d = +0

+1 x1193 -1 x1196 +1 x1197 = +0

+1 x1196 -1 x1197 -1 x1198 = +0

+1 x1190 -1 x11a5 -1 x11a6 = +0

+1 x119c -1 x11a7 -1 x11a8 = +0

+1 x11a6 +1 x11a8 -1 x11ac = +0

+1 x118b -1 x11ad +1 x13f8 +1 x1431 = +0

+1 x11ac -1 x11ae +1 x1403 +1 x143c = +0

+1 x11ad -1 x11af -1 x11b0 = +0

+1 x11ae -1 x11b1 -1 x11b2 = +0

+1 x11af +1 x11b1 -1 x11d1 = +0

+1 x11b0 +1 x11b2 -1 x11b3 = +0

+1 x11b3 -1 x11b5 -1 x11b6 = +0

+1 x11b5 -1 x11b8 +1 x11db = +0

+1 x11b8 -1 x11b9 -1 x11ba = +0

+1 x11ba +1 x11be -1 x11c2 +0 x11c3 = +0

+1 x11b9 -1 x11bc +1 x11bd = +0

+1 x11bc -1 x11bd -1 x11be = +0

+1 x11b6 -1 x11cb -1 x11cc = +0

+1 x11c2 -1 x11cd -1 x11ce = +0

+1 x11cd -1 x11e9 +0 x11ea = +0

+1 x11cb +1 x11e1 -1 x11eb +0 x11ec = +0

+1 x11cc +1 x11ce -1 x11d2 = +0

+1 x11d1 -1 x11d3 +1 x11e5 = +0

+1 x11d2 -1 x11d4 +1 x11e2 = +0

+1 x11d3 -1 x11d5 -1 x11d6 = +0

+1 x11d4 -1 x11d7 -1 x11d8 = +0

+1 x11d5 +1 x11d7 -1 x11e5 = +0

+1 x11d6 +1 x11d8 -1 x11d9 = +0

+1 x11d9 -1 x11db -1 x11dc = +0

+1 x11dc -1 x11e1 -1 x11e2 = +0

+1 x11a5 +1 x11a7 +1 x11e9 +1 x11eb -1 x11ff = +0

+1 x11ff -1 x1203 +1 x1402 +1 x143b = +0

+1 x1203 -1 x1204 -1 x1205 = +0

+1 x1204 -1 x1284 -1 x1285 -1 x1286 = +0

+1 x1205 -1 x120c -1 x120d = +0

+1 x120d -1 x1210 -1 x1211 = +0

+1 x1210 -1 x1213 +1 x1365 +1 x14ea = +0

+1 x1213 -1 x1214 -1 x1215 = +0

+1 x1215 +1 x1219 -1 x121d +0 x121e = +0

+1 x1214 -1 x1217 +1 x1218 = +0

+1 x1217 -1 x1218 -1 x1219 = +0

+1 x1211 -1 x1226 -1 x1227 = +0

+1 x121d -1 x1228 -1 x1229 = +0

+1 x1227 +1 x1229 -1 x122d = +0

+1 x120c -1 x122e +1 x1361 +1 x14e6 = +0

+1 x122d -1 x122f +1 x136c +1 x14f1 = +0

+1 x122e -1 x1230 -1 x1231 = +0

+1 x122f -1 x1232 -1 x1233 = +0

+1 x1230 +1 x1232 -1 x1252 = +0

+1 x1231 +1 x1233 -1 x1234 = +0

+1 x1234 -1 x1236 -1 x1237 = +0

+1 x1236 -1 x1239 +1 x125c = +0

+1 x1239 -1 x123a -1 x123b = +0

+1 x123b +1 x123f -1 x1243 +0 x1244 = +0

+1 x123a -1 x123d +1 x123e = +0

+1 x123d -1 x123e -1 x123f = +0

+1 x1237 -1 x124c -1 x124d = +0

+1 x1243 -1 x124e -1 x124f = +0

+1 x124e -1 x126a +0 x126b = +0

+1 x124c +1 x1262 -1 x126c +0 x126d = +0

+1 x124d +1 x124f -1 x1253 = +0

+1 x1252 -1 x1254 +1 x1266 = +0

+1 x1253 -1 x1255 +1 x1263 = +0

+1 x1254 -1 x1256 -1 x1257 = +0

+1 x1255 -1 x1258 -1 x1259 = +0

+1 x1256 +1 x1258 -1 x1266 = +0

+1 x1257 +1 x1259 -1 x125a = +0

+1 x125a -1 x125c -1 x125d = +0

+1 x125d -1 x1262 -1 x1263 = +0

+1 x1226 +1 x1228 +1 x126a +1 x126c -1 x1280 = +0

+1 x1280 +1 x136b -1 x13c8 +1 x14f0 = +0

+1 x1284 -1 x1289 +1 x137a +1 x13c2 +1 x14fe = +0

+1 x1285 -1 x128b +1 x137b +1 x13c3 +1 x14ff = +0

+1 x1286 -1 x128d +1 x137c +1 x13c4 +1 x1500 = +0

+1 x1289 -1 x1296 -1 x1297 = +0

+1 x1296 +1 x131c -1 x133e -1 x133f -1 x1340 = +0

+1 x1297 -1 x129e -1 x129f = +0

+1 x129f -1 x12a2 -1 x12a3 = +0

+1 x12a2 -1 x12a5 +1 x1329 +1 x1392 = +0

+1 x12a5 -1 x12a6 -1 x12a7 = +0

+1 x12a7 +1 x12ab -1 x12af +0 x12b0 = +0

+1 x12a6 -1 x12a9 +1 x12aa = +0

+1 x12a9 -1 x12aa -1 x12ab = +0

+1 x12a3 -1 x12b8 -1 x12b9 = +0

+1 x12af -1 x12ba -1 x12bb = +0

+1 x12b9 +1 x12bb -1 x12bf = +0

+1 x129e -1 x12c0 +1 x1325 +1 x138e = +0

+1 x12bf -1 x12c1 +1 x1330 +1 x1399 = +0

+1 x12c0 -1 x12c2 -1 x12c3 = +0

+1 x12c1 -1 x12c4 -1 x12c5 = +0

+1 x12c2 +1 x12c4 -1 x12e4 = +0

+1 x12c3 +1 x12c5 -1 x12c6 = +0

+1 x12c6 -1 x12c8 -1 x12c9 = +0

+1 x12c8 -1 x12cb +1 x12ee = +0

+1 x12cb -1 x12cc -1 x12cd = +0

+1 x12cd +1 x12d1 -1 x12d5 +0 x12d6 = +0

+1 x12cc -1 x12cf +1 x12d0 = +0

+1 x12cf -1 x12d0 -1 x12d1 = +0

+1 x12c9 -1 x12de -1 x12df = +0

+1 x12d5 -1 x12e0 -1 x12e1 = +0

+1 x12e0 -1 x12fc +0 x12fd = +0

+1 x12de +1 x12f4 -1 x12fe +0 x12ff = +0

+1 x12df +1 x12e1 -1 x12e5 = +0

+1 x12e4 -1 x12e6 +1 x12f8 = +0

+1 x12e5 -1 x12e7 +1 x12f5 = +0

+1 x12e6 -1 x12e8 -1 x12e9 = +0

+1 x12e7 -1 x12ea -1 x12eb = +0

+1 x12e8 +1 x12ea -1 x12f8 = +0

+1 x12e9 +1 x12eb -1 x12ec = +0

+1 x12ec -1 x12ee -1 x12ef = +0

+1 x12ef -1 x12f4 -1 x12f5 = +0

+1 x12b8 +1 x12ba +1 x12fc +1 x12fe -1 x1312 = +0

+1 x1312 +1 x132f -1 x1358 +1 x1398 = +0

+1 x128b -1 x131c -1 x131d = +0

+1 x131d -1 x1325 -1 x1326 = +0

+1 x1326 -1 x1329 -1 x132a = +0

+1 x132a -1 x132f -1 x1330 = +0

+1 x133e -1 x1343 +1 x1352 +1 x13a6 = +0

+1 x133f -1 x1345 +1 x1353 +1 x13a7 = +0

+1 x1340 -1 x1347 +1 x1354 +1 x13a8 = +0

+1 x1343 +1 x145a -1 x1505 = +0

+1 x1345 -1 x1352 -1 x1353 -1 x1354 = +0

+1 x1358 -1 x1359 -1 x135a = +0

+1 x1359 -1 x137a -1 x137b -1 x137c = +0

+1 x135a -1 x1361 -1 x1362 = +0

+1 x1362 -1 x1365 -1 x1366 = +0

+1 x1366 -1 x136b -1 x136c = +0

+1 x128d -1 x1386 -1 x1387 = +0

+1 x1386 -1 x13a6 -1 x13a7 -1 x13a8 = +0

+1 x1387 -1 x138e -1 x138f = +0

+1 x138f -1 x1392 -1 x1393 = +0

+1 x1393 -1 x1398 -1 x1399 = +0

+1 x1347 -1 x13b3 -1 x13b4 -1 x13b5 = +0

+1 x13b0 +1 x13b3 -1 x13b8 +1 x1411 +1 x144a = +0

+1 x13b1 +1 x13b4 -1 x13ba +1 x1412 +1 x144b = +0

+1 x13b2 +1 x13b5 -1 x13bc +1 x1413 +1 x144c = +0

+1 x13ba -1 x13c2 -1 x13c3 -1 x13c4 = +0

+1 x13c8 -1 x13c9 -1 x13ca = +0

+1 x13c9 -1 x141a -1 x141b -1 x141c = +0

+1 x13ca -1 x13d1 -1 x13d2 = +0

+1 x13d2 -1 x13d5 -1 x13d6 = +0

+1 x13d6 -1 x13db -1 x13dc = +0

+1 x1178 -1 x13f0 -1 x13f1 = +0

+1 x13f0 -1 x1411 -1 x1412 -1 x1413 = +0

+1 x13f1 -1 x13f8 -1 x13f9 = +0

+1 x13f9 -1 x13fc -1 x13fd = +0

+1 x13fd -1 x1402 -1 x1403 = +0

+1 x13bc -1 x141d -1 x141e -1 x141f = +0

+1 x141a +1 x141d -1 x1420 = +0

+1 x141b +1 x141e -1 x1421 = +0

+1 x141c +1 x141f -1 x1422 = +0

+1 x117a -1 x1429 -1 x142a = +0

+1 x1429 -1 x144a -1 x144b -1 x144c = +0

+1 x142a -1 x1431 -1 x1432 = +0

+1 x1432 -1 x1435 -1 x1436 = +0

+1 x1436 -1 x143b -1 x143c = +0

+1 x104d +1 x13b8 -1 x1455 = +0

+1 x1455 -1 x145a -1 x145b = +0

+1 x145b -1 x1462 -1 x1463 = +0

+1 x1463 -1 x1466 -1 x1467 = +0

+1 x1466 -1 x146a -1 x146b = +0

+1 x146b +1 x146f -1 x1473 +0 x1474 = +0

+1 x146a -1 x146d +1 x146e = +0

+1 x146d -1 x146e -1 x146f = +0

+1 x1467 -1 x147c -1 x147d = +0

+1 x1473 -1 x147e -1 x147f = +0

+1 x147d +1 x147f -1 x1483 = +0

+1 x1462 -1 x1486 -1 x1487 = +0

+1 x1483 -1 x1488 -1 x1489 = +0

+1 x1486 +1 x1488 -1 x14a8 = +0

+1 x1487 +1 x1489 -1 x148a = +0

+1 x148a -1 x148c -1 x148d = +0

+1 x148c -1 x148f +1 x14b2 = +0

+1 x148f -1 x1490 -1 x1491 = +0

+1 x1491 +1 x1495 -1 x1499 +0 x149a = +0

+1 x1490 -1 x1493 +1 x1494 = +0

+1 x1493 -1 x1494 -1 x1495 = +0

+1 x148d -1 x14a2 -1 x14a3 = +0

+1 x1499 -1 x14a4 -1 x14a5 = +0

+1 x14a4 -1 x14c0 +0 x14c1 = +0

+1 x14a2 +1 x14b8 -1 x14c2 +0 x14c3 = +0

+1 x14a3 +1 x14a5 -1 x14a9 = +0

+1 x14a8 -1 x14aa +1 x14bc = +0

+1 x14a9 -1 x14ab +1 x14b9 = +0

+1 x14aa -1 x14ac -1 x14ad = +0

+1 x14ab -1 x14ae -1 x14af = +0

+1 x14ac +1 x14ae -1 x14bc = +0

+1 x14ad +1 x14af -1 x14b0 = +0

+1 x14b0 -1 x14b2 -1 x14b3 = +0

+1 x14b3 -1 x14b8 -1 x14b9 = +0

+1 x147c +1 x147e +1 x14c0 +1 x14c2 -1 x14d6 = +0

+1 x14d6 -1 x14de -1 x14df = +0

+1 x14de -1 x14fe -1 x14ff -1 x1500 = +0

+1 x14df -1 x14e6 -1 x14e7 = +0

+1 x14e7 -1 x14ea -1 x14eb = +0

+1 x14eb -1 x14f0 -1 x14f1 = +0



+1 x1032 +1 x1034 -1 xfcb +1 xfee +1 xff0 = +0

-1 x104e +1 x106f +1 x1071 +1 x10b3 +1 x10b5 = +0

-1 x10cf +1 x10f0 +1 x10f2 +1 x1134 +1 x1136 -1 x1150 +1 x1162 -1 x13ca
+1 x13db = +0

-1 x1184 +1 x11a5 +1 x11a7 +1 x11e9 +1 x11eb -1 x13f1 +1 x1402 -1 x142a
+1 x143b = +0

-1 x1205 +1 x1226 +1 x1228 +1 x126a +1 x126c -1 x135a +1 x136b -1 x14df
+1 x14f0 = +0

-1 x1297 +1 x12b8 +1 x12ba +1 x12fc +1 x12fe -1 x131d +1 x132f -1 x1387
+1 x1398 = +0

-1 x145b +1 x147c +1 x147e +1 x14c0 +1 x14c2 = +0

+1 x1048 -1 xfcb = +0

-1 x104e +1 x10c9 = +0

-1 x10cf +1 x114a -1 x1150 +1 x1162 -1 x13ca +1 x13db = +0

-1 x1184 +1 x11ff -1 x13f1 +1 x1402 -1 x142a +1 x143b = +0

-1 x1205 +1 x1280 -1 x135a +1 x136b -1 x14df +1 x14f0 = +0

-1 x1297 +1 x1312 -1 x131d +1 x132f -1 x1387 +1 x1398 = +0

-1 x145b +1 x14d6 = +0

-1 x1048 +1 x1455 = +0

-1 x10c9 +1 x117a = +0

-1 x114a -1 x1162 +1 x1178 -1 x13db = +0

-1 x11ff +1 x128d -1 x1402 -1 x143b = +0

+1 x1176 -1 x1280 -1 x136b -1 x14f0 = +0

+1 x128b -1 x1312 -1 x132f -1 x1398 = +0

+1 x1289 -1 x14d6 = +0

+1 x1343 -1 x1455 +1 x145a = +0

-1 x117a +1 x13b8 = +0

-1 x1178 +1 x13bc = +0

-1 x128d +1 x1347 = +0

-1 x1176 +1 x13ba = +0

-1 x128b +1 x1345 = +0

-1 x1289 +1 x1343 = +0

+1 x1505 -1 xfcb = +0

-1 x1505 <= +0

-1 xfa9 +1 xfbb +1 xfbd = +0

-1 xfd8 +1 xfe5 = +0

-1 xfdc -1 xfe0 +1 xfe6 = +0

+1 x100b -1 x1024 -1 xffe = +0

-1 x1002 -1 x1006 +1 x100c = +0

-1 x1059 +1 x1066 = +0

-1 x105d -1 x1061 +1 x1067 = +0

-1 x107f +1 x108c -1 x10a5 = +0

-1 x1083 -1 x1087 +1 x108d = +0

-1 x10da +1 x10e7 -1 x115c -1 x13d5 = +0

-1 x10de -1 x10e2 +1 x10e8 = +0

-1 x1100 +1 x110d -1 x1126 = +0

-1 x1104 -1 x1108 +1 x110e = +0

-1 x118f +1 x119c -1 x13fc -1 x1435 = +0

-1 x1193 -1 x1197 +1 x119d = +0

-1 x11b5 +1 x11c2 -1 x11db = +0

-1 x11b9 -1 x11bd +1 x11c3 = +0

-1 x1210 +1 x121d -1 x1365 -1 x14ea = +0

-1 x1214 -1 x1218 +1 x121e = +0

-1 x1236 +1 x1243 -1 x125c = +0

-1 x123a -1 x123e +1 x1244 = +0

-1 x12a2 +1 x12af -1 x1329 -1 x1392 = +0

-1 x12a6 -1 x12aa +1 x12b0 = +0

-1 x12c8 +1 x12d5 -1 x12ee = +0

-1 x12cc -1 x12d0 +1 x12d6 = +0

-1 x1466 +1 x1473 = +0

-1 x146a -1 x146e +1 x1474 = +0

-1 x148c +1 x1499 -1 x14b2 = +0

-1 x1490 -1 x1494 +1 x149a = +0

-1 xfd5 +1 xfd9 +1 xfe5 = +0

+1 x100b -1 x1022 +1 x1025 -1 xffc +1 xfff = +0

-1 x1056 +1 x105a +1 x1066 = +0

-1 x107d +1 x1080 +1 x108c -1 x10a3 +1 x10a6 = +0

-1 x10d7 +1 x10db +1 x10e7 -1 x1159 +1 x115d -1 x13d2 +1 x13d6 = +0

-1 x10fe +1 x1101 +1 x110d -1 x1124 +1 x1127 = +0

-1 x118c +1 x1190 +1 x119c -1 x13f9 +1 x13fd -1 x1432 +1 x1436 = +0

-1 x11b3 +1 x11b6 +1 x11c2 -1 x11d9 +1 x11dc = +0

-1 x120d +1 x1211 +1 x121d -1 x1362 +1 x1366 -1 x14e7 +1 x14eb = +0

-1 x1234 +1 x1237 +1 x1243 -1 x125a +1 x125d = +0

-1 x129f +1 x12a3 +1 x12af -1 x1326 +1 x132a -1 x138f +1 x1393 = +0

-1 x12c6 +1 x12c9 +1 x12d5 -1 x12ec +1 x12ef = +0

-1 x1463 +1 x1467 +1 x1473 = +0

-1 x148a +1 x148d +1 x1499 -1 x14b0 +1 x14b3 = +0

+1 x1032 +1 x1034 -1 xfd4 -1 xff5 = +0

-1 x101a -1 x101b -1 x102b -1 x102e +1 x1033 +1 x1035 = +0

-1 x1055 -1 x1076 +1 x10b3 +1 x10b5 = +0

-1 x109b -1 x109c -1 x10ac -1 x10af +1 x10b4 +1 x10b6 = +0

-1 x10d6 -1 x10f7 +1 x1134 +1 x1136 -1 x1158 -1 x1163 -1 x13d1 -1 x13dc
= +0

-1 x111c -1 x111d -1 x112d -1 x1130 +1 x1135 +1 x1137 = +0

-1 x118b -1 x11ac +1 x11e9 +1 x11eb -1 x13f8 -1 x1403 -1 x1431 -1 x143c
= +0

-1 x11d1 -1 x11d2 -1 x11e2 -1 x11e5 +1 x11ea +1 x11ec = +0

-1 x120c -1 x122d +1 x126a +1 x126c -1 x1361 -1 x136c -1 x14e6 -1 x14f1
= +0

-1 x1252 -1 x1253 -1 x1263 -1 x1266 +1 x126b +1 x126d = +0

-1 x129e -1 x12bf +1 x12fc +1 x12fe -1 x1325 -1 x1330 -1 x138e -1 x1399
= +0

-1 x12e4 -1 x12e5 -1 x12f5 -1 x12f8 +1 x12fd +1 x12ff = +0

-1 x1462 -1 x1483 +1 x14c0 +1 x14c2 = +0

-1 x14a8 -1 x14a9 -1 x14b9 -1 x14bc +1 x14c1 +1 x14c3 = +0

-1 xfa9 +1 xfbb +1 xfbd = +0

-1 xfb2 -1 xfb7 +1 xfbc +1 xfbe = +0




+1 x1048 +1 x10c9 +1 x114a +1 x1162 +1 x1176 +1 x1178 +1 x117a +1 x11ff
+1 x1280 +1 x1289 +1 x128b +1 x128d +1 x1312 +1 x132f +1 x136b +1 x1398
+1 x13db +1 x1402 +1 x143b +1 x1455 +1 x14d6 +1 x14f0 -199 xfcb <= +0


-99 xfd5 +1 xfd8 +1 xfdc +1 xfe0 <= +0

-98 xfd8 +1 xfdc +1 xfe0 <= +0

-98 xfd5 +1 xfdc +1 xfe0 <= +0

+1 x1002 +1 x1006 -99 x1022 +1 x1024 -99 xffc +1 xffe <= +0

+1 x1002 +1 x1006 -98 x1024 -98 xffe <= +0

+1 x1002 +1 x1006 -98 x1022 -98 xffc <= +0

-99 x1056 +1 x1059 +1 x105d +1 x1061 <= +0

-98 x1059 +1 x105d +1 x1061 <= +0

-98 x1056 +1 x105d +1 x1061 <= +0

-99 x107d +1 x107f +1 x1083 +1 x1087 -99 x10a3 +1 x10a5 <= +0

-98 x107f +1 x1083 +1 x1087 -98 x10a5 <= +0

-98 x107d +1 x1083 +1 x1087 -98 x10a3 <= +0

-99 x10d7 +1 x10da +1 x10de +1 x10e2 -99 x1159 +1 x115c -99 x13d2 +1 x13d5
<= +0

-98 x10da +1 x10de +1 x10e2 -98 x115c -98 x13d5 <= +0

-98 x10d7 +1 x10de +1 x10e2 -98 x1159 -98 x13d2 <= +0

-99 x10fe +1 x1100 +1 x1104 +1 x1108 -99 x1124 +1 x1126 <= +0

-98 x1100 +1 x1104 +1 x1108 -98 x1126 <= +0

-98 x10fe +1 x1104 +1 x1108 -98 x1124 <= +0

-99 x118c +1 x118f +1 x1193 +1 x1197 -99 x13f9 +1 x13fc -99 x1432 +1 x1435
<= +0

-98 x118f +1 x1193 +1 x1197 -98 x13fc -98 x1435 <= +0

-98 x118c +1 x1193 +1 x1197 -98 x13f9 -98 x1432 <= +0

-99 x11b3 +1 x11b5 +1 x11b9 +1 x11bd -99 x11d9 +1 x11db <= +0

-98 x11b5 +1 x11b9 +1 x11bd -98 x11db <= +0

-98 x11b3 +1 x11b9 +1 x11bd -98 x11d9 <= +0

-99 x120d +1 x1210 +1 x1214 +1 x1218 -99 x1362 +1 x1365 -99 x14e7 +1 x14ea
<= +0

-98 x1210 +1 x1214 +1 x1218 -98 x1365 -98 x14ea <= +0

-98 x120d +1 x1214 +1 x1218 -98 x1362 -98 x14e7 <= +0

-99 x1234 +1 x1236 +1 x123a +1 x123e -99 x125a +1 x125c <= +0

-98 x1236 +1 x123a +1 x123e -98 x125c <= +0

-98 x1234 +1 x123a +1 x123e -98 x125a <= +0

-99 x129f +1 x12a2 +1 x12a6 +1 x12aa -99 x1326 +1 x1329 -99 x138f +1 x1392
<= +0

-98 x12a2 +1 x12a6 +1 x12aa -98 x1329 -98 x1392 <= +0

-98 x129f +1 x12a6 +1 x12aa -98 x1326 -98 x138f <= +0

-99 x12c6 +1 x12c8 +1 x12cc +1 x12d0 -99 x12ec +1 x12ee <= +0

-98 x12c8 +1 x12cc +1 x12d0 -98 x12ee <= +0

-98 x12c6 +1 x12cc +1 x12d0 -98 x12ec <= +0

-99 x1463 +1 x1466 +1 x146a +1 x146e <= +0

-98 x1466 +1 x146a +1 x146e <= +0

-98 x1463 +1 x146a +1 x146e <= +0

-99 x148a +1 x148c +1 x1490 +1 x1494 -99 x14b0 +1 x14b2 <= +0

-98 x148c +1 x1490 +1 x1494 -98 x14b2 <= +0

-98 x148a +1 x1490 +1 x1494 -98 x14b0 <= +0


+1 x101a +1 x101b +1 x102b +1 x102e -100 xfcb +1 xfd4 +1 xff5 <= +0

+1 x101a +1 x101b +1 x102b +1 x102e -99 xfd4 -99 xff5 <= +0

+1 x101a +1 x101b +1 x102b +1 x102e -99 xfcb <= +0

-100 x104e +1 x1055 +1 x1076 +1 x109b +1 x109c +1 x10ac +1 x10af <= +0

-99 x1055 -99 x1076 +1 x109b +1 x109c +1 x10ac +1 x10af <= +0

-99 x104e +1 x109b +1 x109c +1 x10ac +1 x10af <= +0

-100 x10cf +1 x10d6 +1 x10f7 +1 x111c +1 x111d +1 x112d +1 x1130 -100 x1150
+1 x1158 +1 x1163 -100 x13ca +1 x13d1 +1 x13dc <= +0

-99 x10d6 -99 x10f7 +1 x111c +1 x111d +1 x112d +1 x1130 -99 x1158 -99 x1163
-99 x13d1 -99 x13dc <= +0

-99 x10cf +1 x111c +1 x111d +1 x112d +1 x1130 -99 x1150 -99 x13ca <= +0

-100 x1184 +1 x118b +1 x11ac +1 x11d1 +1 x11d2 +1 x11e2 +1 x11e5 -100 x13f1
+1 x13f8 +1 x1403 -100 x142a +1 x1431 +1 x143c <= +0

-99 x118b -99 x11ac +1 x11d1 +1 x11d2 +1 x11e2 +1 x11e5 -99 x13f8 -99 x1403
-99 x1431 -99 x143c <= +0

-99 x1184 +1 x11d1 +1 x11d2 +1 x11e2 +1 x11e5 -99 x13f1 -99 x142a <= +0

-100 x1205 +1 x120c +1 x122d +1 x1252 +1 x1253 +1 x1263 +1 x1266 -100 x135a
+1 x1361 +1 x136c -100 x14df +1 x14e6 +1 x14f1 <= +0

-99 x120c -99 x122d +1 x1252 +1 x1253 +1 x1263 +1 x1266 -99 x1361 -99 x136c
-99 x14e6 -99 x14f1 <= +0

-99 x1205 +1 x1252 +1 x1253 +1 x1263 +1 x1266 -99 x135a -99 x14df <= +0

-100 x1297 +1 x129e +1 x12bf +1 x12e4 +1 x12e5 +1 x12f5 +1 x12f8 -100 x131d
+1 x1325 +1 x1330 -100 x1387 +1 x138e +1 x1399 <= +0

-99 x129e -99 x12bf +1 x12e4 +1 x12e5 +1 x12f5 +1 x12f8 -99 x1325 -99 x1330
-99 x138e -99 x1399 <= +0

-99 x1297 +1 x12e4 +1 x12e5 +1 x12f5 +1 x12f8 -99 x131d -99 x1387 <= +0

-100 x145b +1 x1462 +1 x1483 +1 x14a8 +1 x14a9 +1 x14b9 +1 x14bc <= +0

-99 x1462 -99 x1483 +1 x14a8 +1 x14a9 +1 x14b9 +1 x14bc <= +0

-99 x145b +1 x14a8 +1 x14a9 +1 x14b9 +1 x14bc <= +0


-99 xfa9 +1 xfb2 +1 xfb7 >= +0

-99 xfa9 +1 xfb2 +1 xfb7 <= +0

-99 xfa9 +1 xfb2 +1 xfb7 <= +0

-99 xfa9 +1 xfb2 +1 xfb7 <= +0







general
z
o
xfa9
xfb1
xfb2
xfbb
xfbc
xfb5
xfb6
xfb7
xfbd
xfbe
xfcb
xfd4
xfd5
xfd8
xfd9
xfdc
xfdd
xfe5
xfe6
xfdf
xfe0
xfe1
xfee
xfef
xff0
xff1
xff5
xff8
xff9
xffa
xffb
x101a
xffc
xffe
xfff
x1001
x1002
x1003
x100b
x100c
x1005
x1006
x1007
x1014
x1015
x1016
x1017
x1032
x1033
x1034
x1035
x101b
x101c
x101d
x101e
x101f
x1020
x1021
x102e
x1022
x1024
x1025
x102a
x102b
x1048
x104d
x104e
x1055
x1056
x1059
x105a
x105d
x105e
x1066
x1067
x1060
x1061
x1062
x106f
x1070
x1071
x1072
x1076
x1079
x107a
x107b
x107c
x109b
x107d
x107f
x1080
x1082
x1083
x1084
x108c
x108d
x1086
x1087
x1088
x1095
x1096
x1097
x1098
x10b3
x10b4
x10b5
x10b6
x109c
x109d
x109e
x109f
x10a0
x10a1
x10a2
x10af
x10a3
x10a5
x10a6
x10ab
x10ac
x10c9
x10ce
x10cf
x1171
x1172
x1173
x10d6
x10d7
x10da
x10db
x10dd
x10de
x10df
x10e7
x10e8
x10e1
x10e2
x10e3
x10f0
x10f1
x10f2
x10f3
x10f7
x10f8
x10f9
x10fa
x10fb
x10fc
x10fd
x111c
x10fe
x1100
x1101
x1103
x1104
x1105
x110d
x110e
x1107
x1108
x1109
x1116
x1117
x1118
x1119
x1134
x1135
x1136
x1137
x111d
x111e
x111f
x1120
x1121
x1122
x1123
x1130
x1124
x1126
x1127
x112c
x112d
x114a
x114e
x114f
x1150
x1158
x1159
x115c
x115d
x1162
x1163
x1176
x1178
x117a
x1183
x1184
x13b0
x13b1
x13b2
x118b
x118c
x118f
x1190
x1192
x1193
x1194
x119c
x119d
x1196
x1197
x1198
x11a5
x11a6
x11a7
x11a8
x11ac
x11ad
x11ae
x11af
x11b0
x11b1
x11b2
x11d1
x11b3
x11b5
x11b6
x11b8
x11b9
x11ba
x11c2
x11c3
x11bc
x11bd
x11be
x11cb
x11cc
x11cd
x11ce
x11e9
x11ea
x11eb
x11ec
x11d2
x11d3
x11d4
x11d5
x11d6
x11d7
x11d8
x11e5
x11d9
x11db
x11dc
x11e1
x11e2
x11ff
x1203
x1204
x1205
x1284
x1285
x1286
x120c
x120d
x1210
x1211
x1213
x1214
x1215
x121d
x121e
x1217
x1218
x1219
x1226
x1227
x1228
x1229
x122d
x122e
x122f
x1230
x1231
x1232
x1233
x1252
x1234
x1236
x1237
x1239
x123a
x123b
x1243
x1244
x123d
x123e
x123f
x124c
x124d
x124e
x124f
x126a
x126b
x126c
x126d
x1253
x1254
x1255
x1256
x1257
x1258
x1259
x1266
x125a
x125c
x125d
x1262
x1263
x1280
x13c8
x1289
x128b
x128d
x1296
x1297
x133e
x133f
x1340
x129e
x129f
x12a2
x12a3
x12a5
x12a6
x12a7
x12af
x12b0
x12a9
x12aa
x12ab
x12b8
x12b9
x12ba
x12bb
x12bf
x12c0
x12c1
x12c2
x12c3
x12c4
x12c5
x12e4
x12c6
x12c8
x12c9
x12cb
x12cc
x12cd
x12d5
x12d6
x12cf
x12d0
x12d1
x12de
x12df
x12e0
x12e1
x12fc
x12fd
x12fe
x12ff
x12e5
x12e6
x12e7
x12e8
x12e9
x12ea
x12eb
x12f8
x12ec
x12ee
x12ef
x12f4
x12f5
x1312
x1358
x131c
x131d
x1325
x1326
x1329
x132a
x132f
x1330
x1343
x1345
x1347
x1505
x1352
x1353
x1354
x1359
x135a
x137a
x137b
x137c
x1361
x1362
x1365
x1366
x136b
x136c
x1386
x1387
x13a6
x13a7
x13a8
x138e
x138f
x1392
x1393
x1398
x1399
x13b3
x13b4
x13b5
x13b8
x13ba
x13bc
x13c2
x13c3
x13c4
x13c9
x13ca
x141a
x141b
x141c
x13d1
x13d2
x13d5
x13d6
x13db
x13dc
x13f0
x13f1
x1411
x1412
x1413
x13f8
x13f9
x13fc
x13fd
x1402
x1403
x141d
x141e
x141f
x1420
x1421
x1422
x1429
x142a
x144a
x144b
x144c
x1431
x1432
x1435
x1436
x143b
x143c
x1455
x145a
x145b
x1462
x1463
x1466
x1467
x146a
x146b
x1473
x1474
x146d
x146e
x146f
x147c
x147d
x147e
x147f
x1483
x1486
x1487
x1488
x1489
x14a8
x148a
x148c
x148d
x148f
x1490
x1491
x1499
x149a
x1493
x1494
x1495
x14a2
x14a3
x14a4
x14a5
x14c0
x14c1
x14c2
x14c3
x14a9
x14aa
x14ab
x14ac
x14ad
x14ae
x14af
x14bc
x14b0
x14b2
x14b3
x14b8
x14b9
x14d6
x14de
x14df
x14fe
x14ff
x1500
x14e6
x14e7
x14ea
x14eb
x14f0
x14f1

end



